314579
314579
313910
313910
296379
296379
296379
296379
296379
296379
296379
295025
295025
295025
294919
294919
293106
286325
286325
286325
286325
286230
286230
286050
286050
286050
286050
285710
285710
285710
285710
284178
282371
282371
282371
277530
277530
277530
277530
277530
277530
277530
277530
277530
276616
276616
276616
273687
273687
273687
273687
273687
273687
273687
273687
265144
265144
265144
265144
264265
264265
264265
264265
264265
264265
264265
264265
264265
263745
263745
263745
263745
262138
262138
262138
259997
259997
254283
254283
253723
253723
253723
253723
253723
253723
253723
252343
251624
249245
249245
249245
249245
249245
249245
249245
247189
247189
247189
247189
247189
